1
1000
249
494 1
491 1
491 1
488 1
487 1
482 1
480 1
478 1
477 1
476 1
474 1
471 1
470 1
470 1
470 1
469 1
466 1
463 1
460 1
460 1
460 1
459 1
458 1
458 1
457 1
455 1
451 1
449 1
446 1
446 1
444 1
440 1
440 1
438 1
438 1
438 1
437 1
436 1
436 1
435 1
434 1
427 1
427 1
426 1
425 1
424 1
424 1
419 1
417 1
417 1
415 1
414 1
411 1
411 1
411 1
400 1
398 1
397 1
396 1
394 1
388 1
388 1
386 1
384 1
382 1
381 1
380 1
379 1
378 1
377 1
377 1
376 1
375 1
372 1
370 1
369 1
369 1
369 1
366 1
365 1
365 1
364 1
364 1
362 1
361 1
357 1
356 1
356 1
355 1
353 1
352 1
350 1
349 1
345 1
343 1
341 1
340 1
340 1
339 1
338 1
337 1
335 1
333 1
332 1
329 1
329 1
328 1
327 1
326 1
324 1
323 1
319 1
318 1
317 1
315 1
314 1
312 1
312 1
312 1
309 1
308 1
307 1
307 1
305 1
305 1
303 1
303 1
303 1
302 1
302 1
302 1
301 1
299 1
298 1
297 1
297 1
296 1
295 1
295 1
295 1
294 1
294 1
292 1
292 1
291 1
291 1
291 1
290 1
289 1
289 1
289 1
289 1
288 1
287 1
287 1
286 1
285 1
283 1
282 1
282 1
281 1
280 1
280 1
280 1
279 1
279 1
275 1
275 1
275 1
275 1
275 1
274 1
274 1
274 1
274 1
274 1
273 1
273 1
273 1
273 1
271 1
271 1
271 1
270 1
270 1
270 1
270 1
269 1
269 1
269 1
269 1
268 1
268 1
268 1
267 1
267 1
267 1
266 1
266 1
264 1
264 1
264 1
264 1
263 1
263 1
263 1
262 1
262 1
262 1
262 1
261 1
261 1
260 1
260 1
260 1
260 1
259 1
259 1
259 1
258 1
258 1
258 1
257 1
257 1
257 1
257 1
256 1
256 1
256 1
255 1
255 1
255 1
255 1
255 1
255 1
253 1
252 1
252 1
252 1
252 1
252 1
252 1
251 1
251 1
251 1
250 1
250 1
250 1
250 1
